30
7
5
1
36 30
100 45
130 50
40 130
70 110
135 100
36 30
100 45
130 50
40 130
70 110
135 100
49 86
154 106
29 128
125 109
39 87
105 48
134 96
72 111
115 19
72 69
142 49
85 120
39 132
102 96
155 97
93 78
141 88
122 143
81 86
91 129
16 146
146 41
128 45
55 110
55 110
123 90
104 43
38 38
149 17
131 104
